CPXPARAM_Emphasis_MIP#P8#3#CPXPARAM_MIP_Cuts_Disjunctive#P15#0#0.863733#0.165529
CPXPARAM_Emphasis_MIP#P8#3#CPXPARAM_MIP_Cuts_Disjunctive#P15#1#5.215501#0.999520
CPXPARAM_Emphasis_MIP#P8#4#CPXPARAM_MIP_Cuts_Disjunctive#P15#1#4.630903#0.887485
CPXPARAM_Emphasis_MIP#P8#5#CPXPARAM_MIP_Cuts_Disjunctive#P15#1#5.218005#1.000000
